c generated by sgen
p cnf 117 244
-2 -3 -4 0
-1 -3 -4 0
-1 -2 -4 0
-1 -2 -3 0
-6 -7 -8 0
-5 -7 -8 0
-5 -6 -8 0
-5 -6 -7 0
-10 -11 -12 0
-9 -11 -12 0
-9 -10 -12 0
-9 -10 -11 0
-14 -15 -16 0
-13 -15 -16 0
-13 -14 -16 0
-13 -14 -15 0
-18 -19 -20 0
-17 -19 -20 0
-17 -18 -20 0
-17 -18 -19 0
-22 -23 -24 0
-21 -23 -24 0
-21 -22 -24 0
-21 -22 -23 0
-26 -27 -28 0
-25 -27 -28 0
-25 -26 -28 0
-25 -26 -27 0
-30 -31 -32 0
-29 -31 -32 0
-29 -30 -32 0
-29 -30 -31 0
-34 -35 -36 0
-33 -35 -36 0
-33 -34 -36 0
-33 -34 -35 0
-38 -39 -40 0
-37 -39 -40 0
-37 -38 -40 0
-37 -38 -39 0
-42 -43 -44 0
-41 -43 -44 0
-41 -42 -44 0
-41 -42 -43 0
-46 -47 -48 0
-45 -47 -48 0
-45 -46 -48 0
-45 -46 -47 0
-50 -51 -52 0
-49 -51 -52 0
-49 -50 -52 0
-49 -50 -51 0
-54 -55 -56 0
-53 -55 -56 0
-53 -54 -56 0
-53 -54 -55 0
-58 -59 -60 0
-57 -59 -60 0
-57 -58 -60 0
-57 -58 -59 0
-62 -63 -64 0
-61 -63 -64 0
-61 -62 -64 0
-61 -62 -63 0
-66 -67 -68 0
-65 -67 -68 0
-65 -66 -68 0
-65 -66 -67 0
-70 -71 -72 0
-69 -71 -72 0
-69 -70 -72 0
-69 -70 -71 0
-74 -75 -76 0
-73 -75 -76 0
-73 -74 -76 0
-73 -74 -75 0
-78 -79 -80 0
-77 -79 -80 0
-77 -78 -80 0
-77 -78 -79 0
-82 -83 -84 0
-81 -83 -84 0
-81 -82 -84 0
-81 -82 -83 0
-86 -87 -88 0
-85 -87 -88 0
-85 -86 -88 0
-85 -86 -87 0
-90 -91 -92 0
-89 -91 -92 0
-89 -90 -92 0
-89 -90 -91 0
-94 -95 -96 0
-93 -95 -96 0
-93 -94 -96 0
-93 -94 -95 0
-98 -99 -100 0
-97 -99 -100 0
-97 -98 -100 0
-97 -98 -99 0
-102 -103 -104 0
-101 -103 -104 0
-101 -102 -104 0
-101 -102 -103 0
-106 -107 -108 0
-105 -107 -108 0
-105 -106 -108 0
-105 -106 -107 0
-110 -111 -112 0
-109 -111 -112 0
-109 -110 -112 0
-109 -110 -111 0
-113 -114 -115 0
-113 -114 -116 0
-113 -114 -117 0
-113 -115 -116 0
-113 -115 -117 0
-113 -116 -117 0
-114 -115 -116 0
-114 -115 -117 0
-114 -116 -117 0
-115 -116 -117 0
65 92 107 0
7 92 107 0
7 65 107 0
7 65 92 0
50 27 10 0
6 27 10 0
6 50 10 0
6 50 27 0
52 78 90 0
46 78 90 0
46 52 90 0
46 52 78 0
111 86 38 0
11 86 38 0
11 111 38 0
11 111 86 0
3 63 104 0
12 63 104 0
12 3 104 0
12 3 63 0
93 24 77 0
17 24 77 0
17 93 77 0
17 93 24 0
80 74 55 0
33 74 55 0
33 80 55 0
33 80 74 0
1 70 28 0
37 70 28 0
37 1 28 0
37 1 70 0
9 116 34 0
94 116 34 0
94 9 34 0
94 9 116 0
99 62 60 0
83 62 60 0
83 99 60 0
83 99 62 0
117 16 76 0
100 16 76 0
100 117 76 0
100 117 16 0
21 88 97 0
49 88 97 0
49 21 97 0
49 21 88 0
45 41 67 0
53 41 67 0
53 45 67 0
53 45 41 0
105 48 101 0
59 48 101 0
59 105 101 0
59 105 48 0
110 35 47 0
22 35 47 0
22 110 47 0
22 110 35 0
40 56 8 0
95 56 8 0
95 40 8 0
95 40 56 0
75 32 26 0
84 32 26 0
84 75 26 0
84 75 32 0
109 73 13 0
61 73 13 0
61 109 13 0
61 109 73 0
72 43 106 0
23 43 106 0
23 72 106 0
23 72 43 0
96 4 30 0
68 4 30 0
68 96 30 0
68 96 4 0
5 58 14 0
29 58 14 0
29 5 14 0
29 5 58 0
66 71 113 0
87 71 113 0
87 66 113 0
87 66 71 0
51 39 82 0
114 39 82 0
114 51 82 0
114 51 39 0
64 25 85 0
108 25 85 0
108 64 85 0
108 64 25 0
18 69 31 0
36 69 31 0
36 18 31 0
36 18 69 0
103 81 91 0
19 81 91 0
19 103 91 0
19 103 81 0
79 44 102 0
15 44 102 0
15 79 102 0
15 79 44 0
20 115 57 0
42 115 57 0
42 20 57 0
42 20 115 0
112 2 54 0
112 2 89 0
112 2 98 0
112 54 89 0
112 54 98 0
112 89 98 0
2 54 89 0
2 54 98 0
2 89 98 0
54 89 98 0
